SECTION Comment
Auto Generated file.
Name "Inst_12"
Problem "Stochastic Traveling Salesman Problem"
Dimension: 10
Scenarios: 2
END

SECTION Graph
Nodes 10
Edges 45
Scenarios 2
Root 0
E 2 1 4915
E 3 1 3505
E 3 2 0
E 4 1 0
E 4 2 2410
E 4 3 0
E 5 1 0
E 5 2 2947
E 5 3 0
E 5 4 1597
E 6 1 0
E 6 2 1923
E 6 3 807
E 6 4 0
E 6 5 1405
E 7 1 0
E 7 2 0
E 7 3 2114
E 7 4 0
E 7 5 2635
E 7 6 3359
E 8 1 1844
E 8 2 0
E 8 3 2992
E 8 4 0
E 8 5 4376
E 8 6 0
E 8 7 0
E 9 1 4908
E 9 2 0
E 9 3 3479
E 9 4 0
E 9 5 0
E 9 6 3339
E 9 7 4579
E 9 8 2304
E 10 1 4277
E 10 2 0
E 10 3 0
E 10 4 1332
E 10 5 0
E 10 6 0
E 10 7 2312
E 10 8 0
E 10 9 178
END

SECTION StochasticProbabilities
SP 0.1959314370429003 0.8040685629570997
END

SECTION StochasticWeights
SE 0 0
SE 0 0
SE 1881 954
SE 2695 3490
SE 0 0
SE 4088 1303
SE 890 640
SE 0 0
SE 112 2126
SE 0 0
SE 855 163
SE 0 0
SE 0 0
SE 3272 2038
SE 0 0
SE 4409 3345
SE 1259 1452
SE 0 0
SE 3591 4843
SE 0 0
SE 0 0
SE 0 0
SE 1326 4121
SE 0 0
SE 1625 528
SE 0 0
SE 339 1273
SE 33 3010
SE 0 0
SE 3651 1719
SE 0 0
SE 3894 2117
SE 4718 3188
SE 0 0
SE 0 0
SE 0 0
SE 0 0
SE 538 4531
SE 3192 168
SE 0 0
SE 1203 3380
SE 1722 3902
SE 0 0
SE 1612 3923
SE 0 0
END

SECTION StochasticTerminals
ST 1 1 1
ST 2 1 1
ST 3 1 1
ST 4 1 1
ST 5 1 1
ST 6 1 1
ST 7 1 1
ST 8 1 1
ST 9 1 1
ST 10 1 1
END

EOF
